
Value of objective function: 56.00000000

Actual values of the variables:
X00_10                          1
X00_11                          1
X00_12                          1
X00_13                          1
X00_20                          0
X00_21                          0
X00_22                          0
X00_23                          0
X01_10                          1
X01_11                          1
X01_12                          1
X01_13                          1
X01_20                          0
X01_21                          0
X01_22                          0
X01_23                          0
X02_10                          1
X02_11                          1
X02_12                          1
X02_13                          1
X02_20                          0
X02_21                          0
X02_22                          0
X02_23                          0
X03_10                          1
X03_11                          1
X03_12                          1
X03_13                          1
X03_20                          0
X03_21                          0
X03_22                          0
X03_23                          0
X10_20                          1
X10_21                          1
X10_22                          1
X10_23                          1
X11_20                          1
X11_21                          1
X11_22                          1
X11_23                          1
X12_20                          1
X12_21                          1
X12_22                          1
X12_23                          1
X13_20                          1
X13_21                          1
X13_22                          1
X13_23                          1
X21_10                          0
X22_10                          0
X23_10                          0
X20_10                          0
X21_11                          0
X22_11                          0
X23_11                          0
X20_11                          0
X21_12                          0
X22_12                          0
X23_12                          0
X20_12                          0
X21_13                          0
X22_13                          0
X23_13                          0
X21_00                          0
X22_00                          0
X23_00                          0
X11_00                          0
X12_00                          0
X13_00                          0
X20_00                          0
X10_00                          0
X21_01                          0
X22_01                          0
X23_01                          0
X11_01                          0
X12_01                          0
X13_01                          0
X20_01                          0
X10_01                          0
X21_02                          0
X22_02                          0
X23_02                          0
X11_02                          0
X12_02                          0
X13_02                          0
X20_02                          0
X10_02                          0
X21_03                          0
X22_03                          0
X23_03                          0
X11_03                          0
X12_03                          0
X13_03                          0
